[[72, 81, 71, 70, 80, 69, 78, 79, 88, 89, 90, 99, 98, 97, 96, 87, 86, 95, 94, 93, 92, 91, 82, 83, 73, 84, 85, 76, 75, 77], [68, 67, 74, 66, 65, 59, 58, 57, 56, 64, 55, 46, 47, 49, 50, 41, 40, 39, 48, 38, 29, 37, 28, 30, 31, 19, 21, 22, 20, 13, 12, 11, 10], [2, 3, 4, 14, 5, 6, 7, 8, 9, 18, 17, 16, 15, 23, 24, 25, 26, 27, 35, 33, 32, 42, 43, 34, 36, 44, 45, 54, 53, 52, 51, 60, 61, 62, 63]]